/*********************************************
 * OPL 12.5 Data
 * Author: vansteen
 * Creation Date: 26 mai 2013 at 15:09:49
 *********************************************/

 nbSemaines = 4;
 
 Produits = {"alpha","beta","gamma"};
 
 produit = #[
 	alpha: <350,9,10,22>
 	beta: <470,10,15,42>
 	gamma: <610,18,20,36>
 ]#;
  
 quantiteMax = [
 	[60,80,120,140],
 	[40,40,40,40],
 	[50,40,30,70]
 ];
 